(set-logic ALL)
(set-option :produce-models true)
(declare-sort BoundSet 0)
(declare-sort UnboundSet 0)
(declare-fun IsIgnored (BoundSet) Bool)
(declare-fun IsUnusualWeather (BoundSet) Bool)
(declare-fun ( (Bool) Bool)
(declare-fun IsSensational (BoundSet) Bool)
(declare-fun IsAnyClaim (BoundSet) Bool)
(assert (not (=> (exists ((a BoundSet)) (exists ((b BoundSet)) (and (exists ((d BoundSet)) (( (and (IsIgnored a) (IsUnusualWeather b)))) (IsSensational d)))) (exists ((e BoundSet)) (exists ((a BoundSet)) (exists ((f BoundSet)) (exists ((b BoundSet)) (and (IsAnyClaim e) (and (and (IsUnusualWeather b) (IsIgnored a)) (IsSensational f))))))))))
(check-sat)
(get-model)